c "688519.clq"
p edge 140 544
e 1 5
e 1 6
e 1 19
e 1 22
e 1 34
e 1 36
e 1 53
e 1 54
e 1 56
e 1 64
e 1 87
e 1 96
e 1 108
e 1 123
e 2 5
e 2 7
e 2 8
e 2 9
e 2 10
e 2 11
e 2 16
e 2 24
e 2 25
e 2 27
e 2 46
e 2 54
e 2 55
e 2 57
e 2 76
e 2 79
e 2 85
e 2 92
e 2 107
e 2 111
e 2 118
e 2 139
e 3 5
e 3 6
e 3 12
e 3 17
e 3 20
e 3 28
e 3 60
e 3 67
e 3 77
e 3 83
e 3 88
e 3 112
e 3 132
e 3 133
e 4 5
e 4 6
e 4 7
e 4 8
e 4 10
e 4 12
e 4 15
e 4 17
e 4 18
e 4 21
e 4 24
e 4 30
e 4 37
e 4 41
e 4 63
e 4 84
e 4 89
e 4 99
e 4 102
e 4 108
e 4 122
e 4 123
e 4 132
e 4 138
e 5 6
e 5 7
e 5 8
e 5 9
e 5 11
e 5 13
e 5 17
e 5 18
e 5 22
e 5 23
e 5 26
e 5 27
e 5 28
e 5 29
e 5 32
e 5 33
e 5 35
e 5 37
e 5 55
e 5 61
e 5 105
e 5 110
e 5 114
e 5 119
e 5 133
e 6 7
e 6 10
e 6 11
e 6 12
e 6 13
e 6 15
e 6 17
e 6 19
e 6 23
e 6 27
e 6 31
e 6 44
e 6 49
e 6 52
e 6 85
e 6 90
e 6 104
e 6 105
e 6 118
e 7 8
e 7 9
e 7 13
e 7 14
e 7 15
e 7 18
e 7 19
e 7 21
e 7 28
e 7 29
e 7 41
e 7 58
e 7 66
e 7 69
e 7 73
e 7 75
e 7 86
e 7 94
e 7 100
e 7 110
e 7 119
e 7 125
e 7 136
e 8 9
e 8 10
e 8 12
e 8 15
e 8 18
e 8 20
e 8 23
e 8 24
e 8 31
e 8 45
e 8 49
e 8 55
e 8 59
e 8 61
e 8 64
e 8 73
e 8 77
e 8 79
e 8 85
e 8 92
e 8 102
e 8 114
e 8 120
e 8 135
e 9 14
e 9 32
e 9 38
e 9 43
e 9 45
e 9 55
e 9 63
e 9 90
e 9 94
e 10 11
e 10 14
e 10 20
e 10 49
e 10 50
e 10 57
e 10 76
e 10 80
e 10 84
e 10 101
e 10 123
e 10 127
e 10 135
e 11 16
e 11 43
e 11 48
e 11 66
e 11 103
e 11 105
e 11 117
e 11 129
e 11 135
e 12 13
e 12 16
e 12 21
e 12 23
e 12 34
e 12 65
e 12 71
e 13 14
e 13 22
e 13 26
e 13 28
e 13 29
e 13 36
e 13 47
e 13 52
e 13 64
e 13 68
e 13 70
e 13 72
e 13 79
e 13 84
e 13 93
e 14 16
e 14 20
e 14 25
e 14 33
e 14 38
e 14 46
e 14 47
e 14 88
e 14 97
e 14 107
e 15 25
e 15 58
e 15 61
e 15 68
e 15 77
e 15 103
e 15 127
e 15 137
e 16 19
e 16 26
e 16 30
e 16 35
e 16 39
e 16 44
e 16 53
e 16 71
e 16 74
e 16 80
e 16 82
e 16 100
e 16 116
e 16 120
e 16 122
e 17 43
e 18 22
e 18 33
e 18 34
e 18 37
e 18 38
e 18 42
e 18 44
e 18 50
e 18 69
e 18 105
e 18 110
e 18 115
e 18 124
e 18 138
e 18 139
e 18 140
e 19 42
e 19 72
e 19 74
e 19 132
e 20 21
e 20 25
e 20 32
e 20 45
e 20 59
e 20 73
e 20 78
e 20 83
e 20 86
e 20 128
e 20 131
e 21 26
e 21 39
e 21 41
e 22 30
e 22 42
e 22 54
e 22 80
e 23 24
e 23 39
e 23 56
e 24 95
e 25 27
e 25 37
e 25 40
e 25 47
e 25 67
e 25 70
e 25 87
e 25 89
e 25 91
e 25 94
e 25 96
e 25 106
e 25 129
e 25 130
e 25 139
e 26 31
e 26 32
e 26 78
e 26 83
e 26 90
e 26 97
e 26 116
e 26 118
e 26 128
e 27 30
e 27 123
e 28 29
e 28 35
e 28 46
e 28 51
e 28 60
e 28 66
e 28 72
e 28 73
e 28 79
e 28 87
e 28 94
e 28 97
e 28 120
e 28 135
e 29 31
e 29 34
e 29 36
e 29 43
e 29 58
e 29 62
e 29 88
e 29 100
e 29 109
e 30 65
e 30 84
e 31 39
e 31 40
e 31 56
e 31 63
e 31 71
e 31 81
e 31 115
e 31 138
e 32 33
e 32 40
e 32 44
e 32 45
e 32 51
e 32 81
e 32 116
e 32 117
e 33 35
e 33 36
e 33 40
e 33 41
e 33 50
e 33 52
e 33 53
e 33 60
e 33 62
e 33 80
e 33 97
e 33 103
e 34 49
e 34 53
e 34 66
e 34 76
e 34 81
e 34 137
e 34 138
e 35 57
e 35 59
e 35 108
e 35 112
e 36 38
e 36 42
e 36 48
e 36 50
e 36 51
e 36 52
e 36 56
e 36 77
e 36 87
e 36 89
e 36 106
e 36 132
e 37 101
e 37 115
e 38 85
e 38 86
e 38 101
e 38 113
e 38 122
e 38 124
e 39 51
e 39 95
e 39 101
e 39 125
e 39 126
e 39 133
e 40 133
e 41 46
e 41 67
e 41 89
e 41 92
e 41 126
e 42 47
e 42 61
e 42 71
e 42 74
e 43 62
e 43 64
e 43 69
e 43 70
e 43 96
e 44 48
e 44 62
e 44 82
e 44 95
e 44 121
e 45 48
e 45 134
e 46 78
e 46 106
e 46 107
e 47 58
e 47 68
e 47 75
e 47 109
e 47 137
e 48 54
e 48 59
e 48 102
e 49 96
e 50 75
e 51 91
e 51 120
e 52 57
e 52 83
e 52 111
e 52 115
e 52 127
e 53 60
e 53 92
e 54 68
e 54 82
e 56 70
e 56 129
e 57 63
e 57 65
e 57 72
e 57 74
e 57 91
e 57 112
e 58 81
e 58 98
e 58 103
e 58 118
e 58 134
e 58 136
e 59 67
e 60 82
e 60 125
e 60 131
e 61 102
e 61 128
e 61 134
e 62 93
e 63 75
e 63 93
e 64 65
e 64 86
e 64 98
e 64 104
e 64 136
e 65 78
e 65 99
e 66 69
e 66 124
e 68 104
e 68 121
e 70 90
e 70 99
e 72 107
e 73 113
e 74 111
e 74 117
e 75 76
e 75 98
e 75 124
e 75 130
e 76 93
e 78 95
e 78 98
e 79 104
e 79 109
e 79 112
e 79 127
e 79 140
e 80 100
e 82 88
e 82 136
e 84 129
e 86 99
e 86 116
e 86 121
e 87 134
e 88 131
e 89 91
e 89 106
e 92 114
e 94 126
e 95 109
e 95 110
e 95 126
e 97 122
e 97 128
e 99 121
e 101 108
e 101 131
e 103 111
e 104 130
e 107 119
e 107 125
e 108 114
e 108 130
e 108 139
e 110 113
e 110 140
e 111 113
e 112 117
e 114 137
e 117 119
e 137 140
